n = 20;
budget = 1500000;
groceries = [|2820,156,144,180,179,2493|2940,126,168,196,199,2123|1188,42,174,36,132,941|1900,260,80,60,189,3035|1125,70,20,85,95,2444|1862,182,63,98,160,3946|3470,10,340,230,129,1504|3228,54,402,156,92,2550|4360,100,540,200,126,1962|3176,88,184,232,185,2572|2022,36,348,54,143,964|3564,45,522,144,132,1809|4910,80,180,430,174,1363|7072,72,256,640,178,841|5560,24,16,600,97,3333|2470,70,30,230,149,2444|4464,30,6,480,80,3662|948,54,102,36,183,2846|705,75,45,25,132,1008|1960,24,88,168,175,2659|];
requirements = [|43950,50886|1140,1518|6000,6600|1710,2046|];